# Solution for model JobShopModel
# Objective value = 5221
y[0,0,3] 1
y[0,0,4] 0
y[0,0,6] 0
y[0,1,1] 0
y[0,1,3] 0
y[0,1,6] 1
y[0,2,0] 0
y[0,2,1] 1
y[1,0,4] 0
y[1,0,5] 1
y[1,0,6] 0
y[1,1,1] 0
y[1,1,2] 1
y[1,1,3] 0
y[1,2,0] 0
y[1,2,2] 1
y[2,0,3] 0
y[2,0,4] 1
y[2,0,5] 0
y[2,1,2] 0
y[2,1,3] 0
y[2,1,6] 1
y[2,2,0] 0
y[2,2,1] 1
y[3,0,3] 1
y[3,0,5] 0
y[3,1,2] 0
y[3,1,4] 1
y[3,2,0] 0
y[3,2,1] 1
y[4,0,4] 0
y[4,0,5] 1
y[4,1,3] 1
y[4,1,4] 0
y[4,1,6] 0
y[4,2,0] 1
y[4,2,1] 0
y[4,2,2] 0
y[5,0,4] 0
y[5,0,5] 1
y[5,0,6] 0
y[5,1,2] 1
y[5,1,3] 0
y[5,1,4] 0
y[5,2,1] 1
y[5,2,2] 0
y[5,2,3] 0
y[6,0,4] 1
y[6,0,5] 0
y[6,0,6] 0
y[6,1,2] 1
y[6,1,3] 0
y[6,1,4] 0
y[6,2,0] 1
y[6,2,1] 0
y[6,2,2] 0
x[0,0,0,0] 0
x[0,0,0,1] 1
x[0,0,0,2] 0
x[0,0,1,0] 1
x[0,0,1,1] 1
x[0,0,1,2] 0
x[0,0,2,0] 1
x[0,0,2,1] 0
x[0,0,2,2] 0
x[0,0,3,0] 1
x[0,0,3,1] 1
x[0,0,3,2] 0
x[0,0,4,0] 1
x[0,0,4,1] 1
x[0,0,4,2] 0
x[0,0,5,0] 1
x[0,0,5,1] 1
x[0,0,5,2] 1
x[0,0,6,0] 1
x[0,0,6,1] 1
x[0,0,6,2] 0
x[0,1,0,0] 0
x[0,1,0,1] 0
x[0,1,0,2] 1
x[0,1,1,0] 1
x[0,1,1,1] 1
x[0,1,1,2] 0
x[0,1,2,0] 0
x[0,1,2,1] 1
x[0,1,2,2] 1
x[0,1,3,0] 1
x[0,1,3,1] 0
x[0,1,3,2] 1
x[0,1,4,0] 0
x[0,1,4,1] 1
x[0,1,4,2] 1
x[0,1,5,0] 1
x[0,1,5,1] 0
x[0,1,5,2] 1
x[0,1,6,0] 1
x[0,1,6,1] 1
x[0,1,6,2] 1
x[0,2,0,0] 0
x[0,2,0,1] 0
x[0,2,0,2] 0
x[0,2,1,0] 0
x[0,2,1,1] 1
x[0,2,1,2] 1
x[0,2,2,0] 0
x[0,2,2,1] 0
x[0,2,2,2] 1
x[0,2,3,0] 0
x[0,2,3,1] 0
x[0,2,3,2] 1
x[0,2,4,0] 0
x[0,2,4,1] 0
x[0,2,4,2] 1
x[0,2,5,0] 0
x[0,2,5,1] 0
x[0,2,5,2] 0
x[0,2,6,0] 0
x[0,2,6,1] 0
x[0,2,6,2] 0
x[1,0,0,0] 0
x[1,0,0,1] 0
x[1,0,0,2] 0
x[1,0,1,0] 0
x[1,0,1,1] 0
x[1,0,1,2] 0
x[1,0,2,0] 1
x[1,0,2,1] 1
x[1,0,2,2] 0
x[1,0,3,0] 1
x[1,0,3,1] 1
x[1,0,3,2] 0
x[1,0,4,0] 1
x[1,0,4,1] 0
x[1,0,4,2] 0
x[1,0,5,0] 0
x[1,0,5,1] 0
x[1,0,5,2] 0
x[1,0,6,0] 0
x[1,0,6,1] 0
x[1,0,6,2] 0
x[1,1,0,0] 0
x[1,1,0,1] 0
x[1,1,0,2] 0
x[1,1,1,0] 0
x[1,1,1,1] 0
x[1,1,1,2] 1
x[1,1,2,0] 1
x[1,1,2,1] 1
x[1,1,2,2] 0
x[1,1,3,0] 1
x[1,1,3,1] 0
x[1,1,3,2] 1
x[1,1,4,0] 0
x[1,1,4,1] 1
x[1,1,4,2] 1
x[1,1,5,0] 0
x[1,1,5,1] 0
x[1,1,5,2] 0
x[1,1,6,0] 0
x[1,1,6,1] 0
x[1,1,6,2] 1
x[1,2,0,0] 0
x[1,2,0,1] 0
x[1,2,0,2] 0
x[1,2,1,0] 0
x[1,2,1,1] 0
x[1,2,1,2] 0
x[1,2,2,0] 0
x[1,2,2,1] 1
x[1,2,2,2] 1
x[1,2,3,0] 0
x[1,2,3,1] 0
x[1,2,3,2] 0
x[1,2,4,0] 0
x[1,2,4,1] 0
x[1,2,4,2] 0
x[1,2,5,0] 0
x[1,2,5,1] 0
x[1,2,5,2] 0
x[1,2,6,0] 0
x[1,2,6,1] 0
x[1,2,6,2] 1
x[2,0,0,0] 0
x[2,0,0,1] 0
x[2,0,0,2] 0
x[2,0,1,0] 0
x[2,0,1,1] 0
x[2,0,1,2] 0
x[2,0,2,0] 0
x[2,0,2,1] 0
x[2,0,2,2] 0
x[2,0,3,0] 1
x[2,0,3,1] 1
x[2,0,3,2] 0
x[2,0,4,0] 1
x[2,0,4,1] 1
x[2,0,4,2] 0
x[2,0,5,0] 0
x[2,0,5,1] 0
x[2,0,5,2] 1
x[2,0,6,0] 0
x[2,0,6,1] 0
x[2,0,6,2] 0
x[2,1,0,0] 0
x[2,1,0,1] 0
x[2,1,0,2] 0
x[2,1,1,0] 0
x[2,1,1,1] 0
x[2,1,1,2] 0
x[2,1,2,0] 1
x[2,1,2,1] 0
x[2,1,2,2] 0
x[2,1,3,0] 0
x[2,1,3,1] 0
x[2,1,3,2] 0
x[2,1,4,0] 0
x[2,1,4,1] 1
x[2,1,4,2] 0
x[2,1,5,0] 0
x[2,1,5,1] 1
x[2,1,5,2] 0
x[2,1,6,0] 1
x[2,1,6,1] 1
x[2,1,6,2] 0
x[2,2,0,0] 0
x[2,2,0,1] 0
x[2,2,0,2] 0
x[2,2,1,0] 0
x[2,2,1,1] 0
x[2,2,1,2] 0
x[2,2,2,0] 0
x[2,2,2,1] 0
x[2,2,2,2] 0
x[2,2,3,0] 0
x[2,2,3,1] 0
x[2,2,3,2] 1
x[2,2,4,0] 0
x[2,2,4,1] 0
x[2,2,4,2] 0
x[2,2,5,0] 0
x[2,2,5,1] 0
x[2,2,5,2] 0
x[2,2,6,0] 0
x[2,2,6,1] 0
x[2,2,6,2] 0
x[3,0,0,0] 0
x[3,0,0,1] 0
x[3,0,0,2] 0
x[3,0,1,0] 0
x[3,0,1,1] 0
x[3,0,1,2] 0
x[3,0,2,0] 0
x[3,0,2,1] 0
x[3,0,2,2] 0
x[3,0,3,0] 0
x[3,0,3,1] 0
x[3,0,3,2] 0
x[3,0,4,0] 1
x[3,0,4,1] 1
x[3,0,4,2] 0
x[3,0,5,0] 0
x[3,0,5,1] 0
x[3,0,5,2] 1
x[3,0,6,0] 0
x[3,0,6,1] 1
x[3,0,6,2] 0
x[3,1,0,0] 0
x[3,1,0,1] 0
x[3,1,0,2] 0
x[3,1,1,0] 0
x[3,1,1,1] 0
x[3,1,1,2] 0
x[3,1,2,0] 0
x[3,1,2,1] 0
x[3,1,2,2] 0
x[3,1,3,0] 0
x[3,1,3,1] 0
x[3,1,3,2] 0
x[3,1,4,0] 1
x[3,1,4,1] 1
x[3,1,4,2] 0
x[3,1,5,0] 0
x[3,1,5,1] 1
x[3,1,5,2] 0
x[3,1,6,0] 0
x[3,1,6,1] 0
x[3,1,6,2] 0
x[3,2,0,0] 0
x[3,2,0,1] 0
x[3,2,0,2] 0
x[3,2,1,0] 0
x[3,2,1,1] 0
x[3,2,1,2] 0
x[3,2,2,0] 0
x[3,2,2,1] 0
x[3,2,2,2] 0
x[3,2,3,0] 0
x[3,2,3,1] 0
x[3,2,3,2] 0
x[3,2,4,0] 0
x[3,2,4,1] 0
x[3,2,4,2] 1
x[3,2,5,0] 0
x[3,2,5,1] 0
x[3,2,5,2] 0
x[3,2,6,0] 0
x[3,2,6,1] 0
x[3,2,6,2] 0
x[4,0,0,0] 0
x[4,0,0,1] 0
x[4,0,0,2] 0
x[4,0,1,0] 0
x[4,0,1,1] 0
x[4,0,1,2] 0
x[4,0,2,0] 0
x[4,0,2,1] 0
x[4,0,2,2] 0
x[4,0,3,0] 0
x[4,0,3,1] 0
x[4,0,3,2] 0
x[4,0,4,0] 0
x[4,0,4,1] 1
x[4,0,4,2] 0
x[4,0,5,0] 0
x[4,0,5,1] 0
x[4,0,5,2] 0
x[4,0,6,0] 0
x[4,0,6,1] 0
x[4,0,6,2] 0
x[4,1,0,0] 0
x[4,1,0,1] 0
x[4,1,0,2] 0
x[4,1,1,0] 0
x[4,1,1,1] 0
x[4,1,1,2] 0
x[4,1,2,0] 0
x[4,1,2,1] 0
x[4,1,2,2] 0
x[4,1,3,0] 0
x[4,1,3,1] 0
x[4,1,3,2] 0
x[4,1,4,0] 0
x[4,1,4,1] 0
x[4,1,4,2] 0
x[4,1,5,0] 1
x[4,1,5,1] 1
x[4,1,5,2] 1
x[4,1,6,0] 0
x[4,1,6,1] 0
x[4,1,6,2] 0
x[4,2,0,0] 0
x[4,2,0,1] 0
x[4,2,0,2] 0
x[4,2,1,0] 0
x[4,2,1,1] 0
x[4,2,1,2] 0
x[4,2,2,0] 0
x[4,2,2,1] 0
x[4,2,2,2] 0
x[4,2,3,0] 0
x[4,2,3,1] 0
x[4,2,3,2] 0
x[4,2,4,0] 0
x[4,2,4,1] 0
x[4,2,4,2] 0
x[4,2,5,0] 0
x[4,2,5,1] 1
x[4,2,5,2] 0
x[4,2,6,0] 0
x[4,2,6,1] 0
x[4,2,6,2] 0
x[5,0,0,0] 0
x[5,0,0,1] 0
x[5,0,0,2] 0
x[5,0,1,0] 0
x[5,0,1,1] 0
x[5,0,1,2] 0
x[5,0,2,0] 0
x[5,0,2,1] 0
x[5,0,2,2] 0
x[5,0,3,0] 0
x[5,0,3,1] 0
x[5,0,3,2] 0
x[5,0,4,0] 0
x[5,0,4,1] 0
x[5,0,4,2] 0
x[5,0,5,0] 0
x[5,0,5,1] 0
x[5,0,5,2] 0
x[5,0,6,0] 0
x[5,0,6,1] 0
x[5,0,6,2] 0
x[5,1,0,0] 0
x[5,1,0,1] 0
x[5,1,0,2] 0
x[5,1,1,0] 0
x[5,1,1,1] 0
x[5,1,1,2] 0
x[5,1,2,0] 0
x[5,1,2,1] 0
x[5,1,2,2] 0
x[5,1,3,0] 0
x[5,1,3,1] 0
x[5,1,3,2] 0
x[5,1,4,0] 0
x[5,1,4,1] 0
x[5,1,4,2] 0
x[5,1,5,0] 1
x[5,1,5,1] 0
x[5,1,5,2] 0
x[5,1,6,0] 0
x[5,1,6,1] 0
x[5,1,6,2] 1
x[5,2,0,0] 0
x[5,2,0,1] 0
x[5,2,0,2] 0
x[5,2,1,0] 0
x[5,2,1,1] 0
x[5,2,1,2] 0
x[5,2,2,0] 0
x[5,2,2,1] 0
x[5,2,2,2] 0
x[5,2,3,0] 0
x[5,2,3,1] 0
x[5,2,3,2] 0
x[5,2,4,0] 0
x[5,2,4,1] 0
x[5,2,4,2] 0
x[5,2,5,0] 0
x[5,2,5,1] 1
x[5,2,5,2] 0
x[5,2,6,0] 0
x[5,2,6,1] 1
x[5,2,6,2] 1
x[6,0,0,0] 0
x[6,0,0,1] 0
x[6,0,0,2] 0
x[6,0,1,0] 0
x[6,0,1,1] 0
x[6,0,1,2] 0
x[6,0,2,0] 0
x[6,0,2,1] 0
x[6,0,2,2] 0
x[6,0,3,0] 0
x[6,0,3,1] 0
x[6,0,3,2] 0
x[6,0,4,0] 0
x[6,0,4,1] 0
x[6,0,4,2] 0
x[6,0,5,0] 0
x[6,0,5,1] 0
x[6,0,5,2] 0
x[6,0,6,0] 0
x[6,0,6,1] 0
x[6,0,6,2] 0
x[6,1,0,0] 0
x[6,1,0,1] 0
x[6,1,0,2] 0
x[6,1,1,0] 0
x[6,1,1,1] 0
x[6,1,1,2] 0
x[6,1,2,0] 0
x[6,1,2,1] 0
x[6,1,2,2] 0
x[6,1,3,0] 0
x[6,1,3,1] 0
x[6,1,3,2] 0
x[6,1,4,0] 0
x[6,1,4,1] 0
x[6,1,4,2] 0
x[6,1,5,0] 0
x[6,1,5,1] 0
x[6,1,5,2] 0
x[6,1,6,0] 1
x[6,1,6,1] 0
x[6,1,6,2] 1
x[6,2,0,0] 0
x[6,2,0,1] 0
x[6,2,0,2] 0
x[6,2,1,0] 0
x[6,2,1,1] 0
x[6,2,1,2] 0
x[6,2,2,0] 0
x[6,2,2,1] 0
x[6,2,2,2] 0
x[6,2,3,0] 0
x[6,2,3,1] 0
x[6,2,3,2] 0
x[6,2,4,0] 0
x[6,2,4,1] 0
x[6,2,4,2] 0
x[6,2,5,0] 0
x[6,2,5,1] 0
x[6,2,5,2] 0
x[6,2,6,0] 0
x[6,2,6,1] 0
x[6,2,6,2] 0
s[0,0,3] 1.2909999999999986e+03
s[0,0,4] 0
s[0,0,6] 0
s[0,1,1] 0
s[0,1,3] 0
s[0,1,6] 1.0870000000000016e+03
s[0,2,0] 0
s[0,2,1] 7.8500000000000193e+02
s[1,0,4] 0
s[1,0,5] 973.999999999999
s[1,0,6] 0
s[1,1,1] 0
s[1,1,2] 8.4400000000000250e+02
s[1,1,3] 0
s[1,2,0] 0
s[1,2,2] 4.8000000000000006e+02
s[2,0,3] 0
s[2,0,4] 8.1699999999999955e+02
s[2,0,5] 0
s[2,1,2] 0
s[2,1,3] 0
s[2,1,6] 6.7199999999999943e+02
s[2,2,0] 0
s[2,2,1] 6.0999999999999943e+02
s[3,0,3] 8.7099999999999875e+02
s[3,0,5] 0
s[3,1,2] 0
s[3,1,4] 5.4499999999999943e+02
s[3,2,0] 0
s[3,2,1] 4.8000000000000512e+02
s[4,0,4] 0
s[4,0,5] 673
s[4,1,3] 6.0799999999999989e+02
s[4,1,4] 0
s[4,1,6] 0
s[4,2,0] 4.7999999999999989e+02
s[4,2,1] 0
s[4,2,2] 0
s[5,0,4] 0
s[5,0,5] 1.3440000000000025e+03
s[5,0,6] 0
s[5,1,2] 1.2220000000000025e+03
s[5,1,3] 0
s[5,1,4] 0
s[5,2,1] 1.0770000000000025e+03
s[5,2,2] 0
s[5,2,3] 0
s[6,0,4] 1.6510000000000025e+03
s[6,0,5] 0
s[6,0,6] 0
s[6,1,2] 1.5270000000000025e+03
s[6,1,3] 0
s[6,1,4] 0
s[6,2,0] 1.3700000000000025e+03
s[6,2,1] 0
s[6,2,2] 0
Z_FO 5221
C554 1
C555 0
C556 0
C557 0
C558 1
C559 0
C560 0
C561 1
C562 0
C563 1
C564 0
C565 0
C566 1
C567 0
C568 1
C569 0
C570 1
C571 0
C572 0
